backup/parseSMT/2.smt2
(set-logic QF_AUFBV )
(declare-fun xa () (Array (_ BitVec 32) (_ BitVec 8) ) )
(declare-fun ya () (Array (_ BitVec 32) (_ BitVec 8) ) )
(assert (let ( (?B1 (bvadd  (concat  (select  xa (_ bv3 32) ) (concat  (select  xa (_ bv2 32) ) (concat  (select  xa (_ bv1 32) ) (select  xa (_ bv0 32) ) ) ) ) (concat  (select  ya (_ bv3 32) ) (concat  (select  ya (_ bv2 32) ) (concat  (select  ya (_ bv1 32) ) (select  ya (_ bv0 32) ) ) ) ) ) ) ) (and  (=  false (bvsle  (_ bv0 32) (bvadd  (_ bv1 32) ?B1 ) ) ) (bvslt  (_ bv0 32) ?B1 ) ) ) )
(check-sat)
(get-model)
(get-model)
(get-model)
(get-model)
(get-model)
(get-model)
(get-model)
(get-model)
(exit)
