backup/parseSMT/2.model
sat
(model 
  (define-fun xa () (Array (_ BitVec 32) (_ BitVec 8))
    (_ as-array k!0))
  (define-fun ya () (Array (_ BitVec 32) (_ BitVec 8))
    (_ as-array k!1))
  (define-fun k!0 ((x!1 (_ BitVec 32))) (_ BitVec 8)
    (ite (= x!1 #x00000003) #x7f
    (ite (= x!1 #x00000002) #xff
    (ite (= x!1 #x00000000) #xff
    (ite (= x!1 #x00000001) #xff
      #xff)))))
  (define-fun k!1 ((x!1 (_ BitVec 32))) (_ BitVec 8)
    (ite (= x!1 #x00000003) #x00
    (ite (= x!1 #x00000002) #x00
    (ite (= x!1 #x00000000) #x00
    (ite (= x!1 #x00000001) #x00
      #x00)))))
)
(model 
  (define-fun xa () (Array (_ BitVec 32) (_ BitVec 8))
    (_ as-array k!0))
  (define-fun ya () (Array (_ BitVec 32) (_ BitVec 8))
    (_ as-array k!1))
  (define-fun k!0 ((x!1 (_ BitVec 32))) (_ BitVec 8)
    (ite (= x!1 #x00000003) #x7f
    (ite (= x!1 #x00000002) #xff
    (ite (= x!1 #x00000000) #xff
    (ite (= x!1 #x00000001) #xff
      #xff)))))
  (define-fun k!1 ((x!1 (_ BitVec 32))) (_ BitVec 8)
    (ite (= x!1 #x00000003) #x00
    (ite (= x!1 #x00000002) #x00
    (ite (= x!1 #x00000000) #x00
    (ite (= x!1 #x00000001) #x00
      #x00)))))
)
(model 
  (define-fun xa () (Array (_ BitVec 32) (_ BitVec 8))
    (_ as-array k!0))
  (define-fun ya () (Array (_ BitVec 32) (_ BitVec 8))
    (_ as-array k!1))
  (define-fun k!0 ((x!1 (_ BitVec 32))) (_ BitVec 8)
    (ite (= x!1 #x00000003) #x7f
    (ite (= x!1 #x00000002) #xff
    (ite (= x!1 #x00000000) #xff
    (ite (= x!1 #x00000001) #xff
      #xff)))))
  (define-fun k!1 ((x!1 (_ BitVec 32))) (_ BitVec 8)
    (ite (= x!1 #x00000003) #x00
    (ite (= x!1 #x00000002) #x00
    (ite (= x!1 #x00000000) #x00
    (ite (= x!1 #x00000001) #x00
      #x00)))))
)
(model 
  (define-fun xa () (Array (_ BitVec 32) (_ BitVec 8))
    (_ as-array k!0))
  (define-fun ya () (Array (_ BitVec 32) (_ BitVec 8))
    (_ as-array k!1))
  (define-fun k!0 ((x!1 (_ BitVec 32))) (_ BitVec 8)
    (ite (= x!1 #x00000003) #x7f
    (ite (= x!1 #x00000002) #xff
    (ite (= x!1 #x00000000) #xff
    (ite (= x!1 #x00000001) #xff
      #xff)))))
  (define-fun k!1 ((x!1 (_ BitVec 32))) (_ BitVec 8)
    (ite (= x!1 #x00000003) #x00
    (ite (= x!1 #x00000002) #x00
    (ite (= x!1 #x00000000) #x00
    (ite (= x!1 #x00000001) #x00
      #x00)))))
)
(model 
  (define-fun xa () (Array (_ BitVec 32) (_ BitVec 8))
    (_ as-array k!0))
  (define-fun ya () (Array (_ BitVec 32) (_ BitVec 8))
    (_ as-array k!1))
  (define-fun k!0 ((x!1 (_ BitVec 32))) (_ BitVec 8)
    (ite (= x!1 #x00000003) #x7f
    (ite (= x!1 #x00000002) #xff
    (ite (= x!1 #x00000000) #xff
    (ite (= x!1 #x00000001) #xff
      #xff)))))
  (define-fun k!1 ((x!1 (_ BitVec 32))) (_ BitVec 8)
    (ite (= x!1 #x00000003) #x00
    (ite (= x!1 #x00000002) #x00
    (ite (= x!1 #x00000000) #x00
    (ite (= x!1 #x00000001) #x00
      #x00)))))
)
(model 
  (define-fun xa () (Array (_ BitVec 32) (_ BitVec 8))
    (_ as-array k!0))
  (define-fun ya () (Array (_ BitVec 32) (_ BitVec 8))
    (_ as-array k!1))
  (define-fun k!0 ((x!1 (_ BitVec 32))) (_ BitVec 8)
    (ite (= x!1 #x00000003) #x7f
    (ite (= x!1 #x00000002) #xff
    (ite (= x!1 #x00000000) #xff
    (ite (= x!1 #x00000001) #xff
      #xff)))))
  (define-fun k!1 ((x!1 (_ BitVec 32))) (_ BitVec 8)
    (ite (= x!1 #x00000003) #x00
    (ite (= x!1 #x00000002) #x00
    (ite (= x!1 #x00000000) #x00
    (ite (= x!1 #x00000001) #x00
      #x00)))))
)
(model 
  (define-fun xa () (Array (_ BitVec 32) (_ BitVec 8))
    (_ as-array k!0))
  (define-fun ya () (Array (_ BitVec 32) (_ BitVec 8))
    (_ as-array k!1))
  (define-fun k!0 ((x!1 (_ BitVec 32))) (_ BitVec 8)
    (ite (= x!1 #x00000003) #x7f
    (ite (= x!1 #x00000002) #xff
    (ite (= x!1 #x00000000) #xff
    (ite (= x!1 #x00000001) #xff
      #xff)))))
  (define-fun k!1 ((x!1 (_ BitVec 32))) (_ BitVec 8)
    (ite (= x!1 #x00000003) #x00
    (ite (= x!1 #x00000002) #x00
    (ite (= x!1 #x00000000) #x00
    (ite (= x!1 #x00000001) #x00
      #x00)))))
)
(model 
  (define-fun xa () (Array (_ BitVec 32) (_ BitVec 8))
    (_ as-array k!0))
  (define-fun ya () (Array (_ BitVec 32) (_ BitVec 8))
    (_ as-array k!1))
  (define-fun k!0 ((x!1 (_ BitVec 32))) (_ BitVec 8)
    (ite (= x!1 #x00000003) #x7f
    (ite (= x!1 #x00000002) #xff
    (ite (= x!1 #x00000000) #xff
    (ite (= x!1 #x00000001) #xff
      #xff)))))
  (define-fun k!1 ((x!1 (_ BitVec 32))) (_ BitVec 8)
    (ite (= x!1 #x00000003) #x00
    (ite (= x!1 #x00000002) #x00
    (ite (= x!1 #x00000000) #x00
    (ite (= x!1 #x00000001) #x00
      #x00)))))
)
